p edge 50 112
e 1 10
e 1 14
e 1 39
e 1 47
e 1 50
e 2 14
e 2 23
e 2 25
e 2 26
e 3 16
e 3 23
e 3 30
e 3 34
e 3 38
e 3 39
e 4 9
e 4 15
e 5 10
e 5 13
e 5 23
e 5 28
e 5 48
e 6 7
e 6 17
e 6 20
e 6 22
e 7 10
e 7 31
e 7 38
e 8 21
e 8 26
e 8 28
e 8 36
e 8 40
e 8 42
e 8 44
e 9 40
e 10 12
e 10 27
e 10 40
e 10 42
e 11 20
e 11 33
e 11 38
e 11 48
e 12 17
e 12 29
e 12 33
e 12 49
e 13 29
e 13 48
e 13 49
e 15 21
e 15 26
e 15 28
e 15 36
e 16 23
e 16 42
e 17 26
e 17 37
e 18 21
e 18 27
e 19 33
e 20 25
e 20 31
e 20 43
e 20 49
e 21 36
e 21 40
e 21 50
e 22 34
e 22 35
e 22 36
e 22 44
e 23 29
e 23 38
e 24 45
e 24 46
e 25 28
e 25 49
e 26 28
e 26 35
e 26 39
e 26 40
e 26 48
e 27 30
e 27 39
e 27 40
e 28 35
e 29 43
e 29 48
e 30 32
e 30 37
e 33 35
e 33 36
e 33 38
e 33 43
e 33 45
e 34 36
e 34 37
e 35 40
e 35 44
e 36 39
e 38 44
e 38 45
e 38 47
e 38 50
e 39 48
e 39 49
e 40 44
e 40 47
e 43 47
